8607700933998583945010,4,1,2,012,6,1,2,04,14,1,2,013,6,1,2,06,6,1,2,011,12,1,2,013,4,1,2,02,11,1,2,011,2,1,2,02,7,1,2,013,2,1,2,06,3,1,2,014,1,1,2,010,1,1,2,015,10,1,2,015,15,1,2,012,5,1,2,08,7,1,2,09,7,1,2,05,13,1,2,05,11,1,2,011,13,1,2,010,4,1,2,08,7,1,2,02,4,1,2,013,8,1,2,013,1,1,2,07,11,1,2,09,15,1,2,03,6,1,2,015,7,1,2,04,6,1,2,03,9,1,2,06,15,1,2,014,5,1,2,03,5,1,2,015,7,1,2,02,14,1,2,06,14,1,2,05,9,1,2,011,11,1,2,02,15,1,2,011,3,1,2,07,8,1,2,011,12,1,2,04,5,1,2,08,9,1,2,015,15,1,2,013,2,1,2,015,13,1,2,0